32      4       
15      17      16      18      
0       0       0       0       0       11      2       3       4       5       7       8       9       12      13      14      17      
8       0       11      1       0       5       6       15      19      26      31      
7       6       1       0       0       5       11      15      16      18      25      
1       0       3       0       1       3       10      15      18      
8       5       6       0       0       3       15      16      23      
6       5       0       1       0       3       21      22      25      
1       0       0       1       1       2       15      23      
1       1       2       0       0       2       15      23      
6       1       0       0       10      2       15      24      
1       1       0       0       1       4       24      25      28      30      
3       0       14      0       1       3       20      24      30      
5       4       0       6       0       3       20      24      30      
2       0       2       0       5       4       26      27      29      30      
3       0       12      0       13      3       23      28      30      
10      3       0       3       0       2       20      30      
7       5       0       1       0       3       26      27      29      
1       0       1       4       0       3       25      28      30      
10      0       0       4       5       2       23      28      
3       4       1       0       0       1       20      
3       0       0       11      4       3       27      28      29      
1       0       0       6       5       3       27      28      30      
8       0       3       1       0       1       23      
1       1       4       0       0       1       24      
1       0       1       0       6       1       27      
1       1       0       0       1       1       29      
5       13      0       0       6       1       28      
1       0       1       6       0       1       32      
7       0       2       0       1       1       32      
3       0       0       1       8       1       32      
6       3       0       7       0       1       32      
10      3       0       7       0       1       32      
0       0       0       0       0       0       
